ilp_joint/output/reproduction_ilp.lp
Maximize
  0.00652497962270373 Z_91_0_0 + 0.00789575545992478 Z_91_0_1
   + 0.7978368126477959 Z_91_0_2 + 0.00976564921658869 Z_91_0_3
   + 0.1508840801365693 Z_91_2_0 + 0.041255661536791 Z_91_2_1
   + 0.00757044362741683 Z_91_2_2 + 0.5771783340847999 Z_91_2_3
   + 0.00652497962270373 Z_91_1_0 + 0.00789575545992478 Z_91_1_1
   + 0.7978368126477959 Z_91_1_2 + 0.00976564921658869 Z_91_1_3
   + 0.3301310218760224 Z_365_1_0 + 0.0257521747930452 Z_365_1_1
   + 0.0222365693286481 Z_365_1_2 + 0.1567851254849388 Z_365_1_3
   + 0.00736197960261539 Z_365_0_0 + 0.00921122830141916 Z_365_0_1
   + 0.6978335803575555 Z_365_0_2 + 0.0158411125795975 Z_365_0_3
   + 0.2695847750744517 Z_216_0_0 + 0.0265284774131573 Z_216_0_1
   + 0.0200251410686864 Z_216_0_2 + 0.158759031839137 Z_216_0_3
   + 0.00736197960261539 Z_216_1_0 + 0.00921122830141916 Z_216_1_1
   + 0.6978335803575555 Z_216_1_2 + 0.0169820662593378 Z_216_1_3 + [
   0.0356406146512203 Z_91_0_0 * Z_365_0_0
   + 0.0272211720226843 Z_91_0_0 * Z_216_1_0
   + 0.0356406146512203 Z_91_0_1 * Z_365_0_1
   + 0.0272211720226843 Z_91_0_1 * Z_216_1_1
   + 0.0356406146512203 Z_91_0_2 * Z_365_0_2
   + 0.0272211720226843 Z_91_0_2 * Z_216_1_2
   + 0.0356406146512203 Z_91_0_3 * Z_365_0_3
   + 0.0272211720226843 Z_91_0_3 * Z_216_1_3
   + 0.0356406146512203 Z_91_1_0 * Z_365_0_0
   + 0.0102716324264148 Z_91_1_0 * Z_216_1_0
   + 0.0356406146512203 Z_91_1_1 * Z_365_0_1
   + 0.0102716324264148 Z_91_1_1 * Z_216_1_1
   + 0.0356406146512203 Z_91_1_2 * Z_365_0_2
   + 0.0102716324264148 Z_91_1_2 * Z_216_1_2
   + 0.0356406146512203 Z_91_1_3 * Z_365_0_3
   + 0.0102716324264148 Z_91_1_3 * Z_216_1_3 + 0.4 Z_365_1_0 * Z_216_0_0
   + 0.4 Z_365_1_1 * Z_216_0_1 + 0.4 Z_365_1_2 * Z_216_0_2
   + 0.4 Z_365_1_3 * Z_216_0_3 + 0.2956521739130434 Z_365_0_0 * Z_216_1_0
   + 0.2956521739130434 Z_365_0_1 * Z_216_1_1
   + 0.2956521739130434 Z_365_0_2 * Z_216_1_2
   + 0.2956521739130434 Z_365_0_3 * Z_216_1_3 ] / 2 
Subject To
 constraint1_910: Z_91_0_0 + Z_91_0_1 + Z_91_0_2 + Z_91_0_3 <= 1
 constraint1_912: Z_91_2_0 + Z_91_2_1 + Z_91_2_2 + Z_91_2_3 <= 1
 constraint1_911: Z_91_1_0 + Z_91_1_1 + Z_91_1_2 + Z_91_1_3 <= 1
 constraint1_3651: Z_365_1_0 + Z_365_1_1 + Z_365_1_2 + Z_365_1_3 <= 1
 constraint1_3650: Z_365_0_0 + Z_365_0_1 + Z_365_0_2 + Z_365_0_3 <= 1
 constraint1_2160: Z_216_0_0 + Z_216_0_1 + Z_216_0_2 + Z_216_0_3 <= 1
 constraint1_2161: Z_216_1_0 + Z_216_1_1 + Z_216_1_2 + Z_216_1_3 <= 1
 constraint2_910: Z_91_0_0 + Z_91_2_0 + Z_91_1_0 <= 1
 constraint2_911: Z_91_0_1 + Z_91_2_1 + Z_91_1_1 <= 1
 constraint2_912: Z_91_0_2 + Z_91_2_2 + Z_91_1_2 <= 1
 constraint2_913: Z_91_0_3 + Z_91_2_3 + Z_91_1_3 <= 1
 constraint2_3650: Z_365_1_0 + Z_365_0_0 <= 1
 constraint2_3651: Z_365_1_1 + Z_365_0_1 <= 1
 constraint2_3652: Z_365_1_2 + Z_365_0_2 <= 1
 constraint2_3653: Z_365_1_3 + Z_365_0_3 <= 1
 constraint2_2160: Z_216_0_0 + Z_216_1_0 <= 1
 constraint2_2161: Z_216_0_1 + Z_216_1_1 <= 1
 constraint2_2162: Z_216_0_2 + Z_216_1_2 <= 1
 constraint2_2163: Z_216_0_3 + Z_216_1_3 <= 1
Bounds
Binaries
 Z_91_0_0 Z_91_0_1 Z_91_0_2 Z_91_0_3 Z_91_2_0 Z_91_2_1 Z_91_2_2 Z_91_2_3
 Z_91_1_0 Z_91_1_1 Z_91_1_2 Z_91_1_3 Z_365_1_0 Z_365_1_1 Z_365_1_2
 Z_365_1_3 Z_365_0_0 Z_365_0_1 Z_365_0_2 Z_365_0_3 Z_216_0_0 Z_216_0_1
 Z_216_0_2 Z_216_0_3 Z_216_1_0 Z_216_1_1 Z_216_1_2 Z_216_1_3
End
