ilp_joint/output/reproduction_ilp.mps
NAME reproduction_srl_ilp
* Max problem is converted into Min one
ROWS
 N  OBJ
 L  constraint1_910
 L  constraint1_912
 L  constraint1_911
 L  constraint1_3651
 L  constraint1_3650
 L  constraint1_2160
 L  constraint1_2161
 L  constraint2_910
 L  constraint2_911
 L  constraint2_912
 L  constraint2_913
 L  constraint2_3650
 L  constraint2_3651
 L  constraint2_3652
 L  constraint2_3653
 L  constraint2_2160
 L  constraint2_2161
 L  constraint2_2162
 L  constraint2_2163
COLUMNS
    MARKER    'MARKER'                 'INTORG'
    Z_91_0_0  OBJ       -6.5249796227037308e-03
    Z_91_0_0  constraint1_910  1
    Z_91_0_0  constraint2_910  1
    Z_91_0_1  OBJ       -7.8957554599247814e-03
    Z_91_0_1  constraint1_910  1
    Z_91_0_1  constraint2_911  1
    Z_91_0_2  OBJ       -7.9783681264779593e-01
    Z_91_0_2  constraint1_910  1
    Z_91_0_2  constraint2_912  1
    Z_91_0_3  OBJ       -9.7656492165886857e-03
    Z_91_0_3  constraint1_910  1
    Z_91_0_3  constraint2_913  1
    Z_91_2_0  OBJ       -1.5088408013656934e-01
    Z_91_2_0  constraint1_912  1
    Z_91_2_0  constraint2_910  1
    Z_91_2_1  OBJ       -4.1255661536791034e-02
    Z_91_2_1  constraint1_912  1
    Z_91_2_1  constraint2_911  1
    Z_91_2_2  OBJ       -7.5704436274168342e-03
    Z_91_2_2  constraint1_912  1
    Z_91_2_2  constraint2_912  1
    Z_91_2_3  OBJ       -5.7717833408479990e-01
    Z_91_2_3  constraint1_912  1
    Z_91_2_3  constraint2_913  1
    Z_91_1_0  OBJ       -6.5249796227037308e-03
    Z_91_1_0  constraint1_911  1
    Z_91_1_0  constraint2_910  1
    Z_91_1_1  OBJ       -7.8957554599247814e-03
    Z_91_1_1  constraint1_911  1
    Z_91_1_1  constraint2_911  1
    Z_91_1_2  OBJ       -7.9783681264779593e-01
    Z_91_1_2  constraint1_911  1
    Z_91_1_2  constraint2_912  1
    Z_91_1_3  OBJ       -9.7656492165886857e-03
    Z_91_1_3  constraint1_911  1
    Z_91_1_3  constraint2_913  1
    Z_365_1_0  OBJ       -3.3013102187602239e-01
    Z_365_1_0  constraint1_3651  1
    Z_365_1_0  constraint2_3650  1
    Z_365_1_1  OBJ       -2.5752174793045181e-02
    Z_365_1_1  constraint1_3651  1
    Z_365_1_1  constraint2_3651  1
    Z_365_1_2  OBJ       -2.2236569328648117e-02
    Z_365_1_2  constraint1_3651  1
    Z_365_1_2  constraint2_3652  1
    Z_365_1_3  OBJ       -1.5678512548493884e-01
    Z_365_1_3  constraint1_3651  1
    Z_365_1_3  constraint2_3653  1
    Z_365_0_0  OBJ       -7.3619796026153875e-03
    Z_365_0_0  constraint1_3650  1
    Z_365_0_0  constraint2_3650  1
    Z_365_0_1  OBJ       -9.2112283014191606e-03
    Z_365_0_1  constraint1_3650  1
    Z_365_0_1  constraint2_3651  1
    Z_365_0_2  OBJ       -6.9783358035755549e-01
    Z_365_0_2  constraint1_3650  1
    Z_365_0_2  constraint2_3652  1
    Z_365_0_3  OBJ       -1.5841112579597489e-02
    Z_365_0_3  constraint1_3650  1
    Z_365_0_3  constraint2_3653  1
    Z_216_0_0  OBJ       -2.6958477507445172e-01
    Z_216_0_0  constraint1_2160  1
    Z_216_0_0  constraint2_2160  1
    Z_216_0_1  OBJ       -2.6528477413157336e-02
    Z_216_0_1  constraint1_2160  1
    Z_216_0_1  constraint2_2161  1
    Z_216_0_2  OBJ       -2.0025141068686424e-02
    Z_216_0_2  constraint1_2160  1
    Z_216_0_2  constraint2_2162  1
    Z_216_0_3  OBJ       -1.5875903183913700e-01
    Z_216_0_3  constraint1_2160  1
    Z_216_0_3  constraint2_2163  1
    Z_216_1_0  OBJ       -7.3619796026153875e-03
    Z_216_1_0  constraint1_2161  1
    Z_216_1_0  constraint2_2160  1
    Z_216_1_1  OBJ       -9.2112283014191606e-03
    Z_216_1_1  constraint1_2161  1
    Z_216_1_1  constraint2_2161  1
    Z_216_1_2  OBJ       -6.9783358035755549e-01
    Z_216_1_2  constraint1_2161  1
    Z_216_1_2  constraint2_2162  1
    Z_216_1_3  OBJ       -1.6982066259337791e-02
    Z_216_1_3  constraint1_2161  1
    Z_216_1_3  constraint2_2163  1
    MARKER    'MARKER'                 'INTEND'
RHS
    RHS1      constraint1_910  1
    RHS1      constraint1_912  1
    RHS1      constraint1_911  1
    RHS1      constraint1_3651  1
    RHS1      constraint1_3650  1
    RHS1      constraint1_2160  1
    RHS1      constraint1_2161  1
    RHS1      constraint2_910  1
    RHS1      constraint2_911  1
    RHS1      constraint2_912  1
    RHS1      constraint2_913  1
    RHS1      constraint2_3650  1
    RHS1      constraint2_3651  1
    RHS1      constraint2_3652  1
    RHS1      constraint2_3653  1
    RHS1      constraint2_2160  1
    RHS1      constraint2_2161  1
    RHS1      constraint2_2162  1
    RHS1      constraint2_2163  1
BOUNDS
 UP BND1      Z_91_0_0  1
 UP BND1      Z_91_0_1  1
 UP BND1      Z_91_0_2  1
 UP BND1      Z_91_0_3  1
 UP BND1      Z_91_2_0  1
 UP BND1      Z_91_2_1  1
 UP BND1      Z_91_2_2  1
 UP BND1      Z_91_2_3  1
 UP BND1      Z_91_1_0  1
 UP BND1      Z_91_1_1  1
 UP BND1      Z_91_1_2  1
 UP BND1      Z_91_1_3  1
 UP BND1      Z_365_1_0  1
 UP BND1      Z_365_1_1  1
 UP BND1      Z_365_1_2  1
 UP BND1      Z_365_1_3  1
 UP BND1      Z_365_0_0  1
 UP BND1      Z_365_0_1  1
 UP BND1      Z_365_0_2  1
 UP BND1      Z_365_0_3  1
 UP BND1      Z_216_0_0  1
 UP BND1      Z_216_0_1  1
 UP BND1      Z_216_0_2  1
 UP BND1      Z_216_0_3  1
 UP BND1      Z_216_1_0  1
 UP BND1      Z_216_1_1  1
 UP BND1      Z_216_1_2  1
 UP BND1      Z_216_1_3  1
QUADOBJ
    Z_91_0_0  Z_365_0_0  -1.7820307325610144e-02
    Z_91_0_0  Z_216_1_0  -1.3610586011342152e-02
    Z_91_0_1  Z_365_0_1  -1.7820307325610144e-02
    Z_91_0_1  Z_216_1_1  -1.3610586011342152e-02
    Z_91_0_2  Z_365_0_2  -1.7820307325610144e-02
    Z_91_0_2  Z_216_1_2  -1.3610586011342152e-02
    Z_91_0_3  Z_365_0_3  -1.7820307325610144e-02
    Z_91_0_3  Z_216_1_3  -1.3610586011342152e-02
    Z_91_1_0  Z_365_0_0  -1.7820307325610144e-02
    Z_91_1_0  Z_216_1_0  -5.1358162132074210e-03
    Z_91_1_1  Z_365_0_1  -1.7820307325610144e-02
    Z_91_1_1  Z_216_1_1  -5.1358162132074210e-03
    Z_91_1_2  Z_365_0_2  -1.7820307325610144e-02
    Z_91_1_2  Z_216_1_2  -5.1358162132074210e-03
    Z_91_1_3  Z_365_0_3  -1.7820307325610144e-02
    Z_91_1_3  Z_216_1_3  -5.1358162132074210e-03
    Z_365_1_0  Z_216_0_0  -1.9999999999999996e-01
    Z_365_1_1  Z_216_0_1  -1.9999999999999996e-01
    Z_365_1_2  Z_216_0_2  -1.9999999999999996e-01
    Z_365_1_3  Z_216_0_3  -1.9999999999999996e-01
    Z_365_0_0  Z_216_1_0  -1.4782608695652169e-01
    Z_365_0_1  Z_216_1_1  -1.4782608695652169e-01
    Z_365_0_2  Z_216_1_2  -1.4782608695652169e-01
    Z_365_0_3  Z_216_1_3  -1.4782608695652169e-01
ENDATA
