ilp_joint/output/reproduction_ilp.sol
# Solution for model reproduction_srl_ilp
# Objective value = 6.1165668062459067e-01
Z_216_1_0 0
Z_216_1_1 0
Z_216_1_2 1
Z_216_1_3 0
Z_216_1_4 0
